          15
          30
           1          23           3
           2          23           3
           3          23           3
           4           5          29
           5           2          21
           6           2          21
           7           2          21
           8          11          17
           9          11          17
          10          11          17
          11           7          14
          12           7          14
          13           5           8
          14           5           8
          15           8          21
